Gurobi Optimizer version 9.1.2 build v9.1.2rc0 (linux64)
Thread count: 36 physical cores, 72 logical processors, using up to 32 threads
Optimize a model with 12 rows, 57 columns and 590 nonzeros
Model fingerprint: 0xf32eec78
Model has 47 quadratic constraints
Coefficient statistics:
  Matrix range     [2e-05, 3e+00]
  QMatrix range    [1e+00, 1e+00]
  QLMatrix range   [1e+00, 1e+00]
  Objective range  [8e-03, 7e-01]
  Bounds range     [1e+00, 1e+00]
  RHS range        [1e+00, 1e+00]
Presolve removed 9 rows and 0 columns

Continuous model is non-convex -- solving as a MIP.

Presolve removed 9 rows and 0 columns
Presolve time: 0.00s
Presolved: 189 rows, 57 columns, 443 nonzeros
Presolved model has 47 bilinear constraint(s)
Variable types: 57 continuous, 0 integer (0 binary)

Root relaxation: objective -1.743721e+00, 44 iterations, 0.00 seconds

    Nodes    |    Current Node    |     Objective Bounds      |     Work
 Expl Unexpl |  Obj  Depth IntInf | Incumbent    BestBd   Gap | It/Node Time

     0     0   -1.74372    0   38          -   -1.74372      -     -    0s
H    0     0                       0.6147548   -1.74372   384%     -    0s
     0     0   -1.64739    0    1    0.61475   -1.64739   368%     -    0s
H    0     0                      -1.6450460   -1.64739  0.14%     -    0s
     0     0     cutoff    0        -1.64505   -1.64505  0.00%     -    0s

Cutting planes:
  RLT: 25
  BQP: 3

Explored 1 nodes (76 simplex iterations) in 0.01 seconds
Thread count was 32 (of 72 available processors)

Solution count 2: -1.64505 0.614755 
No other solutions better than -1.64505

Optimal solution found (tolerance 1.00e-04)
Best objective -1.645045978473e+00, best bound -1.645045978473e+00, gap 0.0000%

User-callback calls 77, time in user-callback 0.00 sec
Gurobi Optimizer version 9.1.2 build v9.1.2rc0 (linux64)
Thread count: 36 physical cores, 72 logical processors, using up to 32 threads
Optimize a model with 60 rows, 312 columns and 16100 nonzeros
Model fingerprint: 0x5817a297
Model has 262 quadratic constraints
Coefficient statistics:
  Matrix range     [4e-07, 7e+00]
  QMatrix range    [1e+00, 1e+00]
  QLMatrix range   [1e+00, 1e+00]
  Objective range  [3e-03, 1e+00]
  Bounds range     [1e+00, 1e+00]
  RHS range        [1e+00, 1e+00]
Presolve removed 16 rows and 0 columns

Continuous model is non-convex -- solving as a MIP.

Presolve removed 16 rows and 0 columns
Presolve time: 0.01s
Presolved: 1080 rows, 312 columns, 13135 nonzeros
Presolved model has 262 bilinear constraint(s)
Variable types: 312 continuous, 0 integer (0 binary)

Root relaxation: objective -2.078888e+01, 321 iterations, 0.02 seconds

    Nodes    |    Current Node    |     Objective Bounds      |     Work
 Expl Unexpl |  Obj  Depth IntInf | Incumbent    BestBd   Gap | It/Node Time

     0     0  -20.78888    0  156          -  -20.78888      -     -    0s
     0     0  -19.45150    0  115          -  -19.45150      -     -    0s
     0     0  -19.40096    0  115          -  -19.40096      -     -    0s
     0     0  -19.36820    0  119          -  -19.36820      -     -    0s
     0     0  -19.36422    0  126          -  -19.36422      -     -    0s
     0     0  -19.35229    0  115          -  -19.35229      -     -    0s
     0     0  -19.34948    0  115          -  -19.34948      -     -    0s
     0     0  -19.34541    0  126          -  -19.34541      -     -    0s
     0     0  -19.34490    0  126          -  -19.34490      -     -    0s
     0     0  -19.34377    0  126          -  -19.34377      -     -    0s
     0     0  -19.34367    0  126          -  -19.34367      -     -    0s
     0     0  -19.34330    0  126          -  -19.34330      -     -    0s
     0     0  -19.34328    0  126          -  -19.34328      -     -    0s
H    0     0                     -18.3038146  -19.34328  5.68%     -    0s
     0     2  -19.34328    0  126  -18.30381  -19.34328  5.68%     -    0s
* 1828   542              48     -18.3046038  -18.56807  1.44%  44.8    1s
* 1944   587              48     -18.3048628  -18.56807  1.44%  43.9    2s
* 1946   587              48     -18.3048920  -18.56807  1.44%  43.8    2s
* 2379   737              56     -18.3054725  -18.54935  1.33%  40.8    2s
* 2381   737              57     -18.3055422  -18.54935  1.33%  40.8    2s
* 2964   990              35     -18.3057097  -18.54935  1.33%  37.4    2s
* 3002   990              62     -18.3171836  -18.54935  1.27%  37.2    2s
* 4215  1316              45     -18.3173648  -18.54935  1.27%  33.3    2s
* 4217  1316              46     -18.3173838  -18.54935  1.27%  33.3    2s
* 4638  1479              45     -18.3177013  -18.54935  1.26%  32.0    3s
* 4639  1479              45     -18.3177023  -18.54935  1.26%  32.0    3s
* 4641  1479              45     -18.3177129  -18.54935  1.26%  32.0    3s
* 4643  1479              46     -18.3177247  -18.54935  1.26%  32.0    3s
* 4681  1479              51     -18.3178473  -18.54935  1.26%  31.9    3s
* 4682  1479              51     -18.3178661  -18.54935  1.26%  31.9    3s
* 4743  1479              63     -18.3180315  -18.54935  1.26%  31.8    3s
* 4744  1479              63     -18.3182307  -18.54935  1.26%  31.7    3s
* 4746  1479              61     -18.3185773  -18.54935  1.26%  31.7    3s
* 5298  1619              52     -18.3185966  -18.51033  1.05%  30.7    3s
* 5313  1724              48     -18.3186217  -18.51033  1.05%  30.7    3s
* 5482  1724              45     -18.3186809  -18.51033  1.05%  30.4    3s
* 5490  1724              47     -18.3186984  -18.51033  1.05%  30.4    3s
  8985  1063  -18.48257   25   84  -18.31870  -18.48257  0.89%  36.4    5s
* 9697  1040              75     -18.3293112  -18.48257  0.84%  35.6    5s
*10740  1278              73     -18.3296071  -18.48257  0.83%  34.6    5s
*11001  1319              73     -18.3296425  -18.48257  0.83%  34.4    5s
*11650  1484              62     -18.3299122  -18.46596  0.74%  33.8    5s
*11654  1484              64     -18.3299123  -18.46596  0.74%  33.8    5s
*11728  1484              63     -18.3300138  -18.46596  0.74%  33.8    5s
*12185  1757              65     -18.3309418  -18.40853  0.42%  33.2    5s
*12653  1875              72     -18.3341507  -18.40181  0.37%  32.6    5s
*12661  1875              76     -18.3341576  -18.40181  0.37%  32.6    5s
*14730  1690              75     -18.3341677  -18.37281  0.21%  30.9    6s
*14731  1690              75     -18.3341677  -18.37281  0.21%  30.9    6s
*15036  1713              73     -18.3343014  -18.37190  0.21%  30.7    6s
*15560  1747              77     -18.3343015  -18.36813  0.18%  30.3    6s
*15561  1747              77     -18.3343016  -18.36813  0.18%  30.3    6s
*15565  1747              77     -18.3343031  -18.36813  0.18%  30.3    6s
*15566  1747              77     -18.3343031  -18.36813  0.18%  30.3    6s
*16868  1769              79     -18.3351244  -18.36813  0.18%  29.3    6s
*18401  1816              77     -18.3351667  -18.35429  0.10%  28.2    6s
*18402  1816              77     -18.3351692  -18.35429  0.10%  28.2    6s
*18407  1816              77     -18.3351697  -18.35429  0.10%  28.2    6s
*19182  1778              77     -18.3351769  -18.35174  0.09%  27.8    7s
*19184  1778              77     -18.3351795  -18.35174  0.09%  27.8    7s
*19195  1778              81     -18.3351797  -18.35174  0.09%  27.8    7s
*20772  1863              69     -18.3354143  -18.35023  0.08%  27.0    7s
*23105  1804              84     -18.3354189  -18.34604  0.06%  25.7    7s
*23106  1804              84     -18.3354192  -18.34604  0.06%  25.7    7s
*23769  1757              64     -18.3354207  -18.34466  0.05%  25.3    7s
*23897  1698              74     -18.3354696  -18.34466  0.05%  25.2    7s
*23900  1697              74     -18.3354736  -18.34466  0.05%  25.2    7s
*24566  1659              72     -18.3354944  -18.34328  0.04%  25.0    7s
*24567  1659              72     -18.3354955  -18.34328  0.04%  25.0    7s
*26887  1672              68     -18.3355752  -18.34194  0.03%  24.0    8s
*26890  1672              68     -18.3356013  -18.34194  0.03%  24.0    8s
*28366  1736              84     -18.3356492  -18.34017  0.02%  23.4    8s
*28368  1736              84     -18.3356519  -18.34017  0.02%  23.4    8s
*28373  1736              85     -18.3356531  -18.34017  0.02%  23.4    8s
*28517  1736              83     -18.3356550  -18.34017  0.02%  23.3    8s

Explored 36723 nodes (756606 simplex iterations) in 9.58 seconds
Thread count was 32 (of 72 available processors)

Solution count 10: -18.3357 -18.3357 -18.3357 ... -18.3354

Optimal solution found (tolerance 1.00e-04)
Best objective -1.833565501556e+01, best bound -1.833723154149e+01, gap 0.0086%

User-callback calls 74664, time in user-callback 0.01 sec



objective value: -18.335655015561322
objective bound: -18.33723154149076
x_opt: [0.9713242477864324, 0.9302664438511136, 0.0, 0.3469110981151838, 0.0, 0.0, 1.0, 0.0, 0.0, 0.0, 1.0, 0.0, 1.0, 1.0, 0.5037702425280437, 1.0, 0.0, 1.0, 0.0, 0.0, 0.0, 0.08965496190953406, 0.0, 0.5221521736608301, 0.0, 0.6115610044100044, 0.0, 1.0, 0.0, 0.0, 1.0, 1.0, 0.0, 0.6274657605253103, 1.0, 0.9518224247106778, 0.0, 1.0, 0.0, 1.0, 1.0, 0.0, 0.8569036742379132, 0.014890517908062836, 0.0, 0.04090716212041877, 0.3432038538044441, 0.5085882351722849, 0.0, 0.0]
GUROBI solution time: 9.581088066101074




